c Reduced graph for p07 generated by Cyril Grelier
p edge 24 92
e 1 5
e 1 7
e 1 8
e 1 9
e 1 10
e 1 11
e 1 18
e 1 21
e 2 3
e 2 5
e 2 9
e 2 17
e 2 19
e 2 20
e 2 24
e 3 5
e 3 15
e 3 16
e 3 17
e 3 20
e 3 21
e 3 22
e 4 7
e 4 12
e 4 13
e 4 14
e 4 18
e 4 20
e 4 22
e 5 7
e 5 8
e 5 10
e 5 17
e 5 20
e 6 8
e 6 11
e 6 12
e 6 14
e 6 15
e 6 17
e 6 23
e 6 24
e 7 8
e 7 10
e 7 14
e 7 22
e 8 10
e 8 12
e 8 15
e 8 24
e 9 11
e 9 18
e 9 19
e 9 21
e 9 24
e 10 13
e 10 16
e 10 19
e 10 23
e 11 14
e 11 17
e 11 18
e 11 21
e 11 23
e 12 13
e 12 15
e 12 18
e 12 20
e 12 24
e 13 16
e 13 18
e 13 19
e 13 20
e 13 23
e 14 17
e 14 22
e 14 23
e 15 16
e 15 21
e 15 22
e 15 24
e 16 19
e 16 21
e 16 22
e 16 23
e 17 20
e 17 23
e 18 20
e 18 21
e 19 23
e 19 24
e 21 22
